# SCIP version 6.0.0.2

# frequency for calling separator <rapidlearning> (-1: never, 0: only in root node)
# [type: int, advanced: FALSE, range: [-1,65534], default: -1]
separating/rapidlearning/freq = 5

# 
# [type: bool, advanced: TRUE, range: {TRUE,FALSE}, default: TRUE]
separating/rapidlearning/checklocalexec = FALSE

